p cnf 630 1781
137 138 139 140 141 142 73 0
143 144 145 146 147 148 74 0
149 150 151 152 153 154 75 0
155 156 157 158 159 160 76 0
161 162 163 164 165 166 77 0
167 168 169 170 171 172 78 0
173 174 175 176 177 178 79 0
179 180 181 182 183 184 80 0
185 186 187 188 189 190 81 0
191 192 193 194 195 196 82 0
197 198 199 200 201 202 83 0
203 204 205 206 207 208 84 0
209 210 211 212 213 214 85 0
215 216 217 218 219 220 86 0
221 222 223 224 225 226 87 0
227 228 229 230 231 232 88 0
233 234 235 236 237 238 89 0
239 240 241 242 243 244 90 0
245 246 247 248 249 250 91 0
251 252 253 254 255 256 92 0
257 258 259 260 261 262 93 0
263 264 265 266 267 268 94 0
269 270 271 272 273 274 95 0
275 276 277 278 279 280 96 0
281 282 283 284 285 286 97 0
287 288 289 290 291 292 98 0
293 294 295 296 297 298 99 0
299 300 301 302 303 304 100 0
305 306 307 308 309 310 101 0
311 312 313 314 315 316 102 0
317 318 319 320 321 322 103 0
323 324 325 326 327 328 104 0
329 330 331 332 333 334 105 0
335 336 337 338 339 340 106 0
341 342 343 344 345 346 107 0
347 348 349 350 351 352 108 0
353 354 355 356 357 358 109 0
359 360 361 362 363 364 110 0
365 366 367 368 369 370 111 0
371 372 373 374 375 376 112 0
377 378 379 380 381 382 113 0
383 384 385 386 387 388 114 0
389 390 391 392 393 394 115 0
395 396 397 398 399 400 116 0
401 402 403 404 405 406 117 0
407 408 409 410 411 412 118 0
413 414 415 416 417 418 119 0
419 420 421 422 423 424 120 0
425 426 427 428 429 430 121 0
431 432 433 434 435 436 122 0
437 438 439 440 441 442 123 0
443 444 445 446 447 448 124 0
449 450 451 452 453 454 125 0
455 456 457 458 459 460 126 0
461 462 463 464 465 466 127 0
467 468 469 470 471 472 128 0
473 474 475 476 477 478 129 0
479 480 481 482 483 484 130 0
485 486 487 488 489 490 131 0
491 492 493 494 495 496 132 0
497 498 499 500 501 502 133 0
503 504 505 506 507 508 134 0
509 510 511 512 513 514 135 0
515 516 517 518 519 520 136 0
85 0
86 87 88 0
89 0
90 91 92 0
93 94 95 96 97 98 99 100 101 102 103 104 0
105 106 107 108 109 110 0
111 112 113 114 0
115 116 117 118 119 120 121 122 123 124 125 126 0
127 128 129 130 0
73 74 75 76 77 78 79 80 81 82 83 84 0
131 132 133 134 135 136 0
7 8 9 521 0
-521 -7 0
-521 -8 0
-521 -9 0
1 8 9 522 0
-522 -1 0
-522 -8 0
-522 -9 0
7 2 9 523 0
-523 -7 0
-523 -2 0
-523 -9 0
1 2 9 524 0
-524 -1 0
-524 -2 0
-524 -9 0
7 8 3 525 0
-525 -7 0
-525 -8 0
-525 -3 0
1 8 3 526 0
-526 -1 0
-526 -8 0
-526 -3 0
7 2 3 527 0
-527 -7 0
-527 -2 0
-527 -3 0
1 2 3 528 0
-528 -1 0
-528 -2 0
-528 -3 0
10 11 12 529 0
-529 -10 0
-529 -11 0
-529 -12 0
4 11 12 530 0
-530 -4 0
-530 -11 0
-530 -12 0
10 5 12 531 0
-531 -10 0
-531 -5 0
-531 -12 0
4 5 12 532 0
-532 -4 0
-532 -5 0
-532 -12 0
10 11 6 533 0
-533 -10 0
-533 -11 0
-533 -6 0
4 11 6 534 0
-534 -4 0
-534 -11 0
-534 -6 0
10 5 6 535 0
-535 -10 0
-535 -5 0
-535 -6 0
4 5 6 536 0
-536 -4 0
-536 -5 0
-536 -6 0
19 20 21 537 0
-537 -19 0
-537 -20 0
-537 -21 0
13 20 21 538 0
-538 -13 0
-538 -20 0
-538 -21 0
19 14 21 539 0
-539 -19 0
-539 -14 0
-539 -21 0
13 14 21 540 0
-540 -13 0
-540 -14 0
-540 -21 0
19 20 15 541 0
-541 -19 0
-541 -20 0
-541 -15 0
13 20 15 542 0
-542 -13 0
-542 -20 0
-542 -15 0
19 14 15 543 0
-543 -19 0
-543 -14 0
-543 -15 0
13 14 15 544 0
-544 -13 0
-544 -14 0
-544 -15 0
22 23 24 545 0
-545 -22 0
-545 -23 0
-545 -24 0
16 23 24 546 0
-546 -16 0
-546 -23 0
-546 -24 0
22 17 24 547 0
-547 -22 0
-547 -17 0
-547 -24 0
16 17 24 548 0
-548 -16 0
-548 -17 0
-548 -24 0
22 23 18 549 0
-549 -22 0
-549 -23 0
-549 -18 0
16 23 18 550 0
-550 -16 0
-550 -23 0
-550 -18 0
22 17 18 551 0
-551 -22 0
-551 -17 0
-551 -18 0
16 17 18 552 0
-552 -16 0
-552 -17 0
-552 -18 0
31 32 33 553 0
-553 -31 0
-553 -32 0
-553 -33 0
25 32 33 554 0
-554 -25 0
-554 -32 0
-554 -33 0
31 26 33 555 0
-555 -31 0
-555 -26 0
-555 -33 0
25 26 33 556 0
-556 -25 0
-556 -26 0
-556 -33 0
31 32 27 557 0
-557 -31 0
-557 -32 0
-557 -27 0
25 32 27 558 0
-558 -25 0
-558 -32 0
-558 -27 0
31 26 27 559 0
-559 -31 0
-559 -26 0
-559 -27 0
25 26 27 560 0
-560 -25 0
-560 -26 0
-560 -27 0
34 35 36 561 0
-561 -34 0
-561 -35 0
-561 -36 0
28 35 36 562 0
-562 -28 0
-562 -35 0
-562 -36 0
34 29 36 563 0
-563 -34 0
-563 -29 0
-563 -36 0
28 29 36 564 0
-564 -28 0
-564 -29 0
-564 -36 0
34 35 30 565 0
-565 -34 0
-565 -35 0
-565 -30 0
28 35 30 566 0
-566 -28 0
-566 -35 0
-566 -30 0
34 29 30 567 0
-567 -34 0
-567 -29 0
-567 -30 0
28 29 30 568 0
-568 -28 0
-568 -29 0
-568 -30 0
43 44 45 569 0
-569 -43 0
-569 -44 0
-569 -45 0
37 44 45 570 0
-570 -37 0
-570 -44 0
-570 -45 0
43 38 45 571 0
-571 -43 0
-571 -38 0
-571 -45 0
37 38 45 572 0
-572 -37 0
-572 -38 0
-572 -45 0
43 44 39 573 0
-573 -43 0
-573 -44 0
-573 -39 0
37 44 39 574 0
-574 -37 0
-574 -44 0
-574 -39 0
43 38 39 575 0
-575 -43 0
-575 -38 0
-575 -39 0
37 38 39 576 0
-576 -37 0
-576 -38 0
-576 -39 0
46 47 48 577 0
-577 -46 0
-577 -47 0
-577 -48 0
40 47 48 578 0
-578 -40 0
-578 -47 0
-578 -48 0
46 41 48 579 0
-579 -46 0
-579 -41 0
-579 -48 0
40 41 48 580 0
-580 -40 0
-580 -41 0
-580 -48 0
46 47 42 581 0
-581 -46 0
-581 -47 0
-581 -42 0
40 47 42 582 0
-582 -40 0
-582 -47 0
-582 -42 0
46 41 42 583 0
-583 -46 0
-583 -41 0
-583 -42 0
40 41 42 584 0
-584 -40 0
-584 -41 0
-584 -42 0
55 56 57 585 0
-585 -55 0
-585 -56 0
-585 -57 0
49 56 57 586 0
-586 -49 0
-586 -56 0
-586 -57 0
55 50 57 587 0
-587 -55 0
-587 -50 0
-587 -57 0
49 50 57 588 0
-588 -49 0
-588 -50 0
-588 -57 0
55 56 51 589 0
-589 -55 0
-589 -56 0
-589 -51 0
49 56 51 590 0
-590 -49 0
-590 -56 0
-590 -51 0
55 50 51 591 0
-591 -55 0
-591 -50 0
-591 -51 0
49 50 51 592 0
-592 -49 0
-592 -50 0
-592 -51 0
58 59 60 593 0
-593 -58 0
-593 -59 0
-593 -60 0
52 59 60 594 0
-594 -52 0
-594 -59 0
-594 -60 0
58 53 60 595 0
-595 -58 0
-595 -53 0
-595 -60 0
52 53 60 596 0
-596 -52 0
-596 -53 0
-596 -60 0
58 59 54 597 0
-597 -58 0
-597 -59 0
-597 -54 0
52 59 54 598 0
-598 -52 0
-598 -59 0
-598 -54 0
58 53 54 599 0
-599 -58 0
-599 -53 0
-599 -54 0
52 53 54 600 0
-600 -52 0
-600 -53 0
-600 -54 0
67 68 69 601 0
-601 -67 0
-601 -68 0
-601 -69 0
61 68 69 602 0
-602 -61 0
-602 -68 0
-602 -69 0
67 62 69 603 0
-603 -67 0
-603 -62 0
-603 -69 0
61 62 69 604 0
-604 -61 0
-604 -62 0
-604 -69 0
67 68 63 605 0
-605 -67 0
-605 -68 0
-605 -63 0
61 68 63 606 0
-606 -61 0
-606 -68 0
-606 -63 0
67 62 63 607 0
-607 -67 0
-607 -62 0
-607 -63 0
61 62 63 608 0
-608 -61 0
-608 -62 0
-608 -63 0
70 71 72 609 0
-609 -70 0
-609 -71 0
-609 -72 0
64 71 72 610 0
-610 -64 0
-610 -71 0
-610 -72 0
70 65 72 611 0
-611 -70 0
-611 -65 0
-611 -72 0
64 65 72 612 0
-612 -64 0
-612 -65 0
-612 -72 0
70 71 66 613 0
-613 -70 0
-613 -71 0
-613 -66 0
64 71 66 614 0
-614 -64 0
-614 -71 0
-614 -66 0
70 65 66 615 0
-615 -70 0
-615 -65 0
-615 -66 0
64 65 66 616 0
-616 -64 0
-616 -65 0
-616 -66 0
-523 -530 -73 0
523 -137 0
530 -137 0
-539 -546 -73 0
539 -138 0
546 -138 0
-555 -562 -73 0
555 -139 0
562 -139 0
-571 -578 -73 0
571 -140 0
578 -140 0
-587 -594 -73 0
587 -141 0
594 -141 0
-603 -610 -73 0
603 -142 0
610 -142 0
-524 -529 -74 0
524 -143 0
529 -143 0
-540 -545 -74 0
540 -144 0
545 -144 0
-556 -561 -74 0
556 -145 0
561 -145 0
-572 -577 -74 0
572 -146 0
577 -146 0
-588 -593 -74 0
588 -147 0
593 -147 0
-604 -609 -74 0
604 -148 0
609 -148 0
-526 -529 -75 0
526 -149 0
529 -149 0
-542 -545 -75 0
542 -150 0
545 -150 0
-558 -561 -75 0
558 -151 0
561 -151 0
-574 -577 -75 0
574 -152 0
577 -152 0
-590 -593 -75 0
590 -153 0
593 -153 0
-606 -609 -75 0
606 -154 0
609 -154 0
-522 -530 -76 0
522 -155 0
530 -155 0
-538 -546 -76 0
538 -156 0
546 -156 0
-554 -562 -76 0
554 -157 0
562 -157 0
-570 -578 -76 0
570 -158 0
578 -158 0
-586 -594 -76 0
586 -159 0
594 -159 0
-602 -610 -76 0
602 -160 0
610 -160 0
-522 -531 -77 0
522 -161 0
531 -161 0
-538 -547 -77 0
538 -162 0
547 -162 0
-554 -563 -77 0
554 -163 0
563 -163 0
-570 -579 -77 0
570 -164 0
579 -164 0
-586 -595 -77 0
586 -165 0
595 -165 0
-602 -611 -77 0
602 -166 0
611 -166 0
-527 -529 -78 0
527 -167 0
529 -167 0
-543 -545 -78 0
543 -168 0
545 -168 0
-559 -561 -78 0
559 -169 0
561 -169 0
-575 -577 -78 0
575 -170 0
577 -170 0
-591 -593 -78 0
591 -171 0
593 -171 0
-607 -609 -78 0
607 -172 0
609 -172 0
-523 -533 -79 0
523 -173 0
533 -173 0
-539 -549 -79 0
539 -174 0
549 -174 0
-555 -565 -79 0
555 -175 0
565 -175 0
-571 -581 -79 0
571 -176 0
581 -176 0
-587 -597 -79 0
587 -177 0
597 -177 0
-603 -613 -79 0
603 -178 0
613 -178 0
-525 -531 -80 0
525 -179 0
531 -179 0
-541 -547 -80 0
541 -180 0
547 -180 0
-557 -563 -80 0
557 -181 0
563 -181 0
-573 -579 -80 0
573 -182 0
579 -182 0
-589 -595 -80 0
589 -183 0
595 -183 0
-605 -611 -80 0
605 -184 0
611 -184 0
-525 -533 -81 0
525 -185 0
533 -185 0
-541 -549 -81 0
541 -186 0
549 -186 0
-557 -565 -81 0
557 -187 0
565 -187 0
-573 -581 -81 0
573 -188 0
581 -188 0
-589 -597 -81 0
589 -189 0
597 -189 0
-605 -613 -81 0
605 -190 0
613 -190 0
-521 -532 -82 0
521 -191 0
532 -191 0
-537 -548 -82 0
537 -192 0
548 -192 0
-553 -564 -82 0
553 -193 0
564 -193 0
-569 -580 -82 0
569 -194 0
580 -194 0
-585 -596 -82 0
585 -195 0
596 -195 0
-601 -612 -82 0
601 -196 0
612 -196 0
-521 -534 -83 0
521 -197 0
534 -197 0
-537 -550 -83 0
537 -198 0
550 -198 0
-553 -566 -83 0
553 -199 0
566 -199 0
-569 -582 -83 0
569 -200 0
582 -200 0
-585 -598 -83 0
585 -201 0
598 -201 0
-601 -614 -83 0
601 -202 0
614 -202 0
-521 -535 -84 0
521 -203 0
535 -203 0
-537 -551 -84 0
537 -204 0
551 -204 0
-553 -567 -84 0
553 -205 0
567 -205 0
-569 -583 -84 0
569 -206 0
583 -206 0
-585 -599 -84 0
585 -207 0
599 -207 0
-601 -615 -84 0
601 -208 0
615 -208 0
-521 -529 -85 0
521 -209 0
529 -209 0
-537 -545 -85 0
537 -210 0
545 -210 0
-553 -561 -85 0
553 -211 0
561 -211 0
-569 -577 -85 0
569 -212 0
577 -212 0
-585 -593 -85 0
585 -213 0
593 -213 0
-601 -609 -85 0
601 -214 0
609 -214 0
-524 -535 -86 0
524 -215 0
535 -215 0
-540 -551 -86 0
540 -216 0
551 -216 0
-556 -567 -86 0
556 -217 0
567 -217 0
-572 -583 -86 0
572 -218 0
583 -218 0
-588 -599 -86 0
588 -219 0
599 -219 0
-604 -615 -86 0
604 -220 0
615 -220 0
-526 -534 -87 0
526 -221 0
534 -221 0
-542 -550 -87 0
542 -222 0
550 -222 0
-558 -566 -87 0
558 -223 0
566 -223 0
-574 -582 -87 0
574 -224 0
582 -224 0
-590 -598 -87 0
590 -225 0
598 -225 0
-606 -614 -87 0
606 -226 0
614 -226 0
-527 -532 -88 0
527 -227 0
532 -227 0
-543 -548 -88 0
543 -228 0
548 -228 0
-559 -564 -88 0
559 -229 0
564 -229 0
-575 -580 -88 0
575 -230 0
580 -230 0
-591 -596 -88 0
591 -231 0
596 -231 0
-607 -612 -88 0
607 -232 0
612 -232 0
-528 -536 -89 0
528 -233 0
536 -233 0
-544 -552 -89 0
544 -234 0
552 -234 0
-560 -568 -89 0
560 -235 0
568 -235 0
-576 -584 -89 0
576 -236 0
584 -236 0
-592 -600 -89 0
592 -237 0
600 -237 0
-608 -616 -89 0
608 -238 0
616 -238 0
-522 -533 -90 0
522 -239 0
533 -239 0
-538 -549 -90 0
538 -240 0
549 -240 0
-554 -565 -90 0
554 -241 0
565 -241 0
-570 -581 -90 0
570 -242 0
581 -242 0
-586 -597 -90 0
586 -243 0
597 -243 0
-602 -613 -90 0
602 -244 0
613 -244 0
-523 -531 -91 0
523 -245 0
531 -245 0
-539 -547 -91 0
539 -246 0
547 -246 0
-555 -563 -91 0
555 -247 0
563 -247 0
-571 -579 -91 0
571 -248 0
579 -248 0
-587 -595 -91 0
587 -249 0
595 -249 0
-603 -611 -91 0
603 -250 0
611 -250 0
-525 -530 -92 0
525 -251 0
530 -251 0
-541 -546 -92 0
541 -252 0
546 -252 0
-557 -562 -92 0
557 -253 0
562 -253 0
-573 -578 -92 0
573 -254 0
578 -254 0
-589 -594 -92 0
589 -255 0
594 -255 0
-605 -610 -92 0
605 -256 0
610 -256 0
-524 -531 -93 0
524 -257 0
531 -257 0
-540 -547 -93 0
540 -258 0
547 -258 0
-556 -563 -93 0
556 -259 0
563 -259 0
-572 -579 -93 0
572 -260 0
579 -260 0
-588 -595 -93 0
588 -261 0
595 -261 0
-604 -611 -93 0
604 -262 0
611 -262 0
-524 -533 -94 0
524 -263 0
533 -263 0
-540 -549 -94 0
540 -264 0
549 -264 0
-556 -565 -94 0
556 -265 0
565 -265 0
-572 -581 -94 0
572 -266 0
581 -266 0
-588 -597 -94 0
588 -267 0
597 -267 0
-604 -613 -94 0
604 -268 0
613 -268 0
-526 -530 -95 0
526 -269 0
530 -269 0
-542 -546 -95 0
542 -270 0
546 -270 0
-558 -562 -95 0
558 -271 0
562 -271 0
-574 -578 -95 0
574 -272 0
578 -272 0
-590 -594 -95 0
590 -273 0
594 -273 0
-606 -610 -95 0
606 -274 0
610 -274 0
-526 -533 -96 0
526 -275 0
533 -275 0
-542 -549 -96 0
542 -276 0
549 -276 0
-558 -565 -96 0
558 -277 0
565 -277 0
-574 -581 -96 0
574 -278 0
581 -278 0
-590 -597 -96 0
590 -279 0
597 -279 0
-606 -613 -96 0
606 -280 0
613 -280 0
-522 -534 -97 0
522 -281 0
534 -281 0
-538 -550 -97 0
538 -282 0
550 -282 0
-554 -566 -97 0
554 -283 0
566 -283 0
-570 -582 -97 0
570 -284 0
582 -284 0
-586 -598 -97 0
586 -285 0
598 -285 0
-602 -614 -97 0
602 -286 0
614 -286 0
-522 -535 -98 0
522 -287 0
535 -287 0
-538 -551 -98 0
538 -288 0
551 -288 0
-554 -567 -98 0
554 -289 0
567 -289 0
-570 -583 -98 0
570 -290 0
583 -290 0
-586 -599 -98 0
586 -291 0
599 -291 0
-602 -615 -98 0
602 -292 0
615 -292 0
-527 -530 -99 0
527 -293 0
530 -293 0
-543 -546 -99 0
543 -294 0
546 -294 0
-559 -562 -99 0
559 -295 0
562 -295 0
-575 -578 -99 0
575 -296 0
578 -296 0
-591 -594 -99 0
591 -297 0
594 -297 0
-607 -610 -99 0
607 -298 0
610 -298 0
-527 -531 -100 0
527 -299 0
531 -299 0
-543 -547 -100 0
543 -300 0
547 -300 0
-559 -563 -100 0
559 -301 0
563 -301 0
-575 -579 -100 0
575 -302 0
579 -302 0
-591 -595 -100 0
591 -303 0
595 -303 0
-607 -611 -100 0
607 -304 0
611 -304 0
-523 -532 -101 0
523 -305 0
532 -305 0
-539 -548 -101 0
539 -306 0
548 -306 0
-555 -564 -101 0
555 -307 0
564 -307 0
-571 -580 -101 0
571 -308 0
580 -308 0
-587 -596 -101 0
587 -309 0
596 -309 0
-603 -612 -101 0
603 -310 0
612 -310 0
-523 -535 -102 0
523 -311 0
535 -311 0
-539 -551 -102 0
539 -312 0
551 -312 0
-555 -567 -102 0
555 -313 0
567 -313 0
-571 -583 -102 0
571 -314 0
583 -314 0
-587 -599 -102 0
587 -315 0
599 -315 0
-603 -615 -102 0
603 -316 0
615 -316 0
-525 -532 -103 0
525 -317 0
532 -317 0
-541 -548 -103 0
541 -318 0
548 -318 0
-557 -564 -103 0
557 -319 0
564 -319 0
-573 -580 -103 0
573 -320 0
580 -320 0
-589 -596 -103 0
589 -321 0
596 -321 0
-605 -612 -103 0
605 -322 0
612 -322 0
-525 -534 -104 0
525 -323 0
534 -323 0
-541 -550 -104 0
541 -324 0
550 -324 0
-557 -566 -104 0
557 -325 0
566 -325 0
-573 -582 -104 0
573 -326 0
582 -326 0
-589 -598 -104 0
589 -327 0
598 -327 0
-605 -614 -104 0
605 -328 0
614 -328 0
-528 -532 -105 0
528 -329 0
532 -329 0
-544 -548 -105 0
544 -330 0
548 -330 0
-560 -564 -105 0
560 -331 0
564 -331 0
-576 -580 -105 0
576 -332 0
580 -332 0
-592 -596 -105 0
592 -333 0
596 -333 0
-608 -612 -105 0
608 -334 0
612 -334 0
-528 -534 -106 0
528 -335 0
534 -335 0
-544 -550 -106 0
544 -336 0
550 -336 0
-560 -566 -106 0
560 -337 0
566 -337 0
-576 -582 -106 0
576 -338 0
582 -338 0
-592 -598 -106 0
592 -339 0
598 -339 0
-608 -614 -106 0
608 -340 0
614 -340 0
-528 -535 -107 0
528 -341 0
535 -341 0
-544 -551 -107 0
544 -342 0
551 -342 0
-560 -567 -107 0
560 -343 0
567 -343 0
-576 -583 -107 0
576 -344 0
583 -344 0
-592 -599 -107 0
592 -345 0
599 -345 0
-608 -615 -107 0
608 -346 0
615 -346 0
-524 -536 -108 0
524 -347 0
536 -347 0
-540 -552 -108 0
540 -348 0
552 -348 0
-556 -568 -108 0
556 -349 0
568 -349 0
-572 -584 -108 0
572 -350 0
584 -350 0
-588 -600 -108 0
588 -351 0
600 -351 0
-604 -616 -108 0
604 -352 0
616 -352 0
-526 -536 -109 0
526 -353 0
536 -353 0
-542 -552 -109 0
542 -354 0
552 -354 0
-558 -568 -109 0
558 -355 0
568 -355 0
-574 -584 -109 0
574 -356 0
584 -356 0
-590 -600 -109 0
590 -357 0
600 -357 0
-606 -616 -109 0
606 -358 0
616 -358 0
-527 -536 -110 0
527 -359 0
536 -359 0
-543 -552 -110 0
543 -360 0
552 -360 0
-559 -568 -110 0
559 -361 0
568 -361 0
-575 -584 -110 0
575 -362 0
584 -362 0
-591 -600 -110 0
591 -363 0
600 -363 0
-607 -616 -110 0
607 -364 0
616 -364 0
-524 -530 -111 0
524 -365 0
530 -365 0
-540 -546 -111 0
540 -366 0
546 -366 0
-556 -562 -111 0
556 -367 0
562 -367 0
-572 -578 -111 0
572 -368 0
578 -368 0
-588 -594 -111 0
588 -369 0
594 -369 0
-604 -610 -111 0
604 -370 0
610 -370 0
-526 -531 -112 0
526 -371 0
531 -371 0
-542 -547 -112 0
542 -372 0
547 -372 0
-558 -563 -112 0
558 -373 0
563 -373 0
-574 -579 -112 0
574 -374 0
579 -374 0
-590 -595 -112 0
590 -375 0
595 -375 0
-606 -611 -112 0
606 -376 0
611 -376 0
-527 -533 -113 0
527 -377 0
533 -377 0
-543 -549 -113 0
543 -378 0
549 -378 0
-559 -565 -113 0
559 -379 0
565 -379 0
-575 -581 -113 0
575 -380 0
581 -380 0
-591 -597 -113 0
591 -381 0
597 -381 0
-607 -613 -113 0
607 -382 0
613 -382 0
-521 -536 -114 0
521 -383 0
536 -383 0
-537 -552 -114 0
537 -384 0
552 -384 0
-553 -568 -114 0
553 -385 0
568 -385 0
-569 -584 -114 0
569 -386 0
584 -386 0
-585 -600 -114 0
585 -387 0
600 -387 0
-601 -616 -114 0
601 -388 0
616 -388 0
-528 -530 -115 0
528 -389 0
530 -389 0
-544 -546 -115 0
544 -390 0
546 -390 0
-560 -562 -115 0
560 -391 0
562 -391 0
-576 -578 -115 0
576 -392 0
578 -392 0
-592 -594 -115 0
592 -393 0
594 -393 0
-608 -610 -115 0
608 -394 0
610 -394 0
-528 -531 -116 0
528 -395 0
531 -395 0
-544 -547 -116 0
544 -396 0
547 -396 0
-560 -563 -116 0
560 -397 0
563 -397 0
-576 -579 -116 0
576 -398 0
579 -398 0
-592 -595 -116 0
592 -399 0
595 -399 0
-608 -611 -116 0
608 -400 0
611 -400 0
-528 -533 -117 0
528 -401 0
533 -401 0
-544 -549 -117 0
544 -402 0
549 -402 0
-560 -565 -117 0
560 -403 0
565 -403 0
-576 -581 -117 0
576 -404 0
581 -404 0
-592 -597 -117 0
592 -405 0
597 -405 0
-608 -613 -117 0
608 -406 0
613 -406 0
-524 -532 -118 0
524 -407 0
532 -407 0
-540 -548 -118 0
540 -408 0
548 -408 0
-556 -564 -118 0
556 -409 0
564 -409 0
-572 -580 -118 0
572 -410 0
580 -410 0
-588 -596 -118 0
588 -411 0
596 -411 0
-604 -612 -118 0
604 -412 0
612 -412 0
-524 -534 -119 0
524 -413 0
534 -413 0
-540 -550 -119 0
540 -414 0
550 -414 0
-556 -566 -119 0
556 -415 0
566 -415 0
-572 -582 -119 0
572 -416 0
582 -416 0
-588 -598 -119 0
588 -417 0
598 -417 0
-604 -614 -119 0
604 -418 0
614 -418 0
-526 -532 -120 0
526 -419 0
532 -419 0
-542 -548 -120 0
542 -420 0
548 -420 0
-558 -564 -120 0
558 -421 0
564 -421 0
-574 -580 -120 0
574 -422 0
580 -422 0
-590 -596 -120 0
590 -423 0
596 -423 0
-606 -612 -120 0
606 -424 0
612 -424 0
-526 -535 -121 0
526 -425 0
535 -425 0
-542 -551 -121 0
542 -426 0
551 -426 0
-558 -567 -121 0
558 -427 0
567 -427 0
-574 -583 -121 0
574 -428 0
583 -428 0
-590 -599 -121 0
590 -429 0
599 -429 0
-606 -615 -121 0
606 -430 0
615 -430 0
-522 -536 -122 0
522 -431 0
536 -431 0
-538 -552 -122 0
538 -432 0
552 -432 0
-554 -568 -122 0
554 -433 0
568 -433 0
-570 -584 -122 0
570 -434 0
584 -434 0
-586 -600 -122 0
586 -435 0
600 -435 0
-602 -616 -122 0
602 -436 0
616 -436 0
-527 -534 -123 0
527 -437 0
534 -437 0
-543 -550 -123 0
543 -438 0
550 -438 0
-559 -566 -123 0
559 -439 0
566 -439 0
-575 -582 -123 0
575 -440 0
582 -440 0
-591 -598 -123 0
591 -441 0
598 -441 0
-607 -614 -123 0
607 -442 0
614 -442 0
-527 -535 -124 0
527 -443 0
535 -443 0
-543 -551 -124 0
543 -444 0
551 -444 0
-559 -567 -124 0
559 -445 0
567 -445 0
-575 -583 -124 0
575 -446 0
583 -446 0
-591 -599 -124 0
591 -447 0
599 -447 0
-607 -615 -124 0
607 -448 0
615 -448 0
-523 -536 -125 0
523 -449 0
536 -449 0
-539 -552 -125 0
539 -450 0
552 -450 0
-555 -568 -125 0
555 -451 0
568 -451 0
-571 -584 -125 0
571 -452 0
584 -452 0
-587 -600 -125 0
587 -453 0
600 -453 0
-603 -616 -125 0
603 -454 0
616 -454 0
-525 -536 -126 0
525 -455 0
536 -455 0
-541 -552 -126 0
541 -456 0
552 -456 0
-557 -568 -126 0
557 -457 0
568 -457 0
-573 -584 -126 0
573 -458 0
584 -458 0
-589 -600 -126 0
589 -459 0
600 -459 0
-605 -616 -126 0
605 -460 0
616 -460 0
-528 -529 -127 0
528 -461 0
529 -461 0
-544 -545 -127 0
544 -462 0
545 -462 0
-560 -561 -127 0
560 -463 0
561 -463 0
-576 -577 -127 0
576 -464 0
577 -464 0
-592 -593 -127 0
592 -465 0
593 -465 0
-608 -609 -127 0
608 -466 0
609 -466 0
-522 -532 -128 0
522 -467 0
532 -467 0
-538 -548 -128 0
538 -468 0
548 -468 0
-554 -564 -128 0
554 -469 0
564 -469 0
-570 -580 -128 0
570 -470 0
580 -470 0
-586 -596 -128 0
586 -471 0
596 -471 0
-602 -612 -128 0
602 -472 0
612 -472 0
-523 -534 -129 0
523 -473 0
534 -473 0
-539 -550 -129 0
539 -474 0
550 -474 0
-555 -566 -129 0
555 -475 0
566 -475 0
-571 -582 -129 0
571 -476 0
582 -476 0
-587 -598 -129 0
587 -477 0
598 -477 0
-603 -614 -129 0
603 -478 0
614 -478 0
-525 -535 -130 0
525 -479 0
535 -479 0
-541 -551 -130 0
541 -480 0
551 -480 0
-557 -567 -130 0
557 -481 0
567 -481 0
-573 -583 -130 0
573 -482 0
583 -482 0
-589 -599 -130 0
589 -483 0
599 -483 0
-605 -615 -130 0
605 -484 0
615 -484 0
-522 -529 -131 0
522 -485 0
529 -485 0
-538 -545 -131 0
538 -486 0
545 -486 0
-554 -561 -131 0
554 -487 0
561 -487 0
-570 -577 -131 0
570 -488 0
577 -488 0
-586 -593 -131 0
586 -489 0
593 -489 0
-602 -609 -131 0
602 -490 0
609 -490 0
-523 -529 -132 0
523 -491 0
529 -491 0
-539 -545 -132 0
539 -492 0
545 -492 0
-555 -561 -132 0
555 -493 0
561 -493 0
-571 -577 -132 0
571 -494 0
577 -494 0
-587 -593 -132 0
587 -495 0
593 -495 0
-603 -609 -132 0
603 -496 0
609 -496 0
-525 -529 -133 0
525 -497 0
529 -497 0
-541 -545 -133 0
541 -498 0
545 -498 0
-557 -561 -133 0
557 -499 0
561 -499 0
-573 -577 -133 0
573 -500 0
577 -500 0
-589 -593 -133 0
589 -501 0
593 -501 0
-605 -609 -133 0
605 -502 0
609 -502 0
-521 -530 -134 0
521 -503 0
530 -503 0
-537 -546 -134 0
537 -504 0
546 -504 0
-553 -562 -134 0
553 -505 0
562 -505 0
-569 -578 -134 0
569 -506 0
578 -506 0
-585 -594 -134 0
585 -507 0
594 -507 0
-601 -610 -134 0
601 -508 0
610 -508 0
-521 -531 -135 0
521 -509 0
531 -509 0
-537 -547 -135 0
537 -510 0
547 -510 0
-553 -563 -135 0
553 -511 0
563 -511 0
-569 -579 -135 0
569 -512 0
579 -512 0
-585 -595 -135 0
585 -513 0
595 -513 0
-601 -611 -135 0
601 -514 0
611 -514 0
-521 -533 -136 0
521 -515 0
533 -515 0
-537 -549 -136 0
537 -516 0
549 -516 0
-553 -565 -136 0
553 -517 0
565 -517 0
-569 -581 -136 0
569 -518 0
581 -518 0
-585 -597 -136 0
585 -519 0
597 -519 0
-601 -613 -136 0
601 -520 0
613 -520 0
-87 -86 0
-88 -86 0
-88 -87 0
-91 -90 0
-92 -90 0
-92 -91 0
-93 -94 0
-93 -95 0
-94 -95 0
-93 -617 0
-94 -617 0
-95 -617 0
617 -96 0
617 -97 0
-96 -97 0
617 -618 0
-96 -618 0
-97 -618 0
618 -98 0
618 -99 0
-98 -99 0
618 -619 0
-98 -619 0
-99 -619 0
619 -100 0
619 -101 0
-100 -101 0
619 -620 0
-100 -620 0
-101 -620 0
-102 620 0
-103 620 0
-103 -102 0
-104 620 0
-104 -102 0
-104 -103 0
-105 -106 0
-105 -107 0
-106 -107 0
-105 -621 0
-106 -621 0
-107 -621 0
-108 621 0
-109 621 0
-109 -108 0
-110 621 0
-110 -108 0
-110 -109 0
-112 -111 0
-113 -111 0
-113 -112 0
-114 -111 0
-114 -112 0
-114 -113 0
-115 -116 0
-115 -117 0
-116 -117 0
-115 -622 0
-116 -622 0
-117 -622 0
622 -118 0
622 -119 0
-118 -119 0
622 -623 0
-118 -623 0
-119 -623 0
623 -120 0
623 -121 0
-120 -121 0
623 -624 0
-120 -624 0
-121 -624 0
624 -122 0
624 -123 0
-122 -123 0
624 -625 0
-122 -625 0
-123 -625 0
-124 625 0
-125 625 0
-125 -124 0
-126 625 0
-126 -124 0
-126 -125 0
-128 -127 0
-129 -127 0
-129 -128 0
-130 -127 0
-130 -128 0
-130 -129 0
-73 -74 0
-73 -75 0
-74 -75 0
-73 -626 0
-74 -626 0
-75 -626 0
626 -76 0
626 -77 0
-76 -77 0
626 -627 0
-76 -627 0
-77 -627 0
627 -78 0
627 -79 0
-78 -79 0
627 -628 0
-78 -628 0
-79 -628 0
628 -80 0
628 -81 0
-80 -81 0
628 -629 0
-80 -629 0
-81 -629 0
-82 629 0
-83 629 0
-83 -82 0
-84 629 0
-84 -82 0
-84 -83 0
-131 -132 0
-131 -133 0
-132 -133 0
-131 -630 0
-132 -630 0
-133 -630 0
-134 630 0
-135 630 0
-135 -134 0
-136 630 0
-136 -134 0
-136 -135 0
8 0
-2 0
-7 0
-9 0
-10 0
-11 0
-12 0
21 0
-15 0
-19 0
-20 0
-22 0
-23 0
-24 0
34 0
-28 0
-31 0
-32 0
-33 0
-35 0
-36 0
47 0
-41 0
-43 0
-44 0
-45 0
-46 0
-48 0
60 0
-54 0
-55 0
-56 0
-57 0
-58 0
-59 0
-106 0
-107 0
-108 0
